m = 10;
l = [25, 20, 18, 16, 14, 12, 10, 15, 12, 21];

n = 24;
s = [7, 6, 9, 8, 5, 4, 7, 4, 8, 6, 5, 7, 9, 6, 5, 8, 7, 6, 5, 7, 5, 6, 9, 8];

D =[| 0, 4, 4, 3, 3, 7, 4, 3, 7, 6, 8, 7, 6, 7, 4, 4, 7, 6, 5, 7, 8, 7, 5, 6, 7
    | 4, 0, 6, 5, 3, 8, 6, 5, 9, 8, 5, 9, 8, 9, 6, 5, 8, 7, 6, 8, 9, 8, 6, 7, 8
    | 4, 6, 0, 3, 5, 8, 2, 6, 9, 7, 8, 7, 6, 7, 5, 6, 8, 7, 6, 7, 9, 8, 5, 6, 8
    | 3, 5, 3, 0, 2, 5, 3, 3, 6, 5, 7, 6, 5, 6, 3, 2, 6, 5, 4, 6, 7, 6, 4, 5, 6
    | 3, 3, 5, 2, 0, 6, 4, 2, 7, 6, 8, 7, 6, 7, 4, 2, 7, 6, 5, 7, 8, 7, 5, 6, 7 
    | 5, 3, 3, 6, 5, 0, 6, 2, 8, 4, 3, 7, 4, 2, 5, 6, 4, 2, 5, 7, 6, 4, 5, 3, 6
    | 3, 1, 4, 3, 4, 7, 0, 3, 6, 5, 2, 5, 7, 6, 3, 5, 2, 6, 7, 5, 3, 6, 3, 5, 6
    | 3, 4, 2, 7, 6, 3, 5, 0, 7, 6, 7, 5, 2, 6, 7, 5, 2, 5, 7, 5, 4, 2, 6, 5, 4
    | 6, 3, 7, 3, 3, 6, 6, 4, 0, 5, 7, 6, 3, 5, 7, 6, 3, 5, 7, 6, 3, 5, 2, 6, 3
    | 5, 4, 6, 3, 9, 3, 3, 3, 6, 0, 2, 5, 7, 6, 7, 5, 2, 6, 7, 5, 3, 6, 3, 5, 6
    | 6, 7, 3, 6, 3, 7, 2, 4, 5, 2, 0, 7, 5, 3, 6, 7, 5, 2, 5, 7, 5, 4, 2, 6, 5
    | 6, 7, 5, 6, 3, 2, 3, 4, 3, 5, 7, 0, 3, 5, 2, 5, 7, 6, 7, 5, 2, 6, 5, 4, 2
    | 2, 3, 3, 4, 3, 4, 4, 6, 7, 6, 5, 2, 0, 6, 7, 5, 2, 6, 7, 5, 3, 6, 3, 5, 6
    | 5, 7, 7, 9, 6, 7, 9, 4, 2, 9, 6, 9, 6, 0, 8, 8, 4, 5, 8, 7, 6, 7, 9, 3, 1
    | 1, 3, 5, 7, 4, 6, 7, 9, 8, 8, 4, 6, 5, 4, 0, 9, 8, 3, 5, 2, 3, 4, 6, 9, 8
    | 7, 5, 4, 7, 3, 3, 6, 8, 9, 6, 7, 5, 9, 3, 4, 0, 7, 9, 4, 9, 2, 3, 5, 8, 7
    | 1, 7, 7, 8, 6, 7, 7, 8, 6, 9, 9, 5, 1, 7, 7, 8, 0, 8, 8, 3, 6, 7, 7, 8, 7
    | 6, 4, 3, 6, 3, 4, 5, 7, 8, 6, 9, 4, 8, 2, 3, 7, 6, 0, 3, 8, 1, 2, 4, 7, 6
    | 7, 6, 3, 7, 4, 7, 3, 5, 6, 5, 8, 3, 7, 3, 3, 6, 5, 7, 0, 7, 2, 3, 4, 6, 5
    | 9, 7, 6, 7, 5, 3, 8, 2, 4, 3, 6, 2, 6, 4, 4, 5, 4, 6, 2, 0, 3, 3, 2, 5, 4
    | 1, 9, 8, 8, 7, 5, 2, 6, 2, 3, 5, 3, 5, 6, 5, 3, 2, 4, 5, 2, 0, 6, 5, 4, 3
    | 7, 3, 4, 8, 5, 7, 6, 4, 2, 3, 5, 4, 6, 4, 7, 2, 5, 4, 6, 8, 3, 0, 7, 2, 5
    | 3, 6, 5, 2, 5, 8, 6, 3, 5, 3, 7, 5, 7, 6, 5, 8, 5, 2, 5, 3, 5, 8, 0, 3, 5
    | 4, 5, 6, 7, 4, 2, 6, 4, 5, 7, 2, 6, 4, 5, 7, 6, 8, 5, 4, 7, 4, 5, 7, 0, 3
    | 8, 2, 7, 9, 7, 5, 2, 5, 3, 5, 7, 6, 2, 5, 4, 6, 8, 5, 7, 4, 3, 5, 4, 7, 0 |]

% gecode
% [| 18 | 17 | 18 | 17 | 8 | 16 | 16 | 17 | 15 | 17 |]
% %%%mzn-stat: failures=823962
% %%%mzn-stat: initTime=0.27
% %%%mzn-stat: nodes=1648062
% %%%mzn-stat: peakDepth=185
% %%%mzn-stat: propagations=2186533714
% %%%mzn-stat: propagators=47409
% %%%mzn-stat: restarts=0
% %%%mzn-stat: solutions=7
% %%%mzn-stat: solveTime=298.716
% %%%mzn-stat: variables=34701
% %%%mzn-stat-end
% %%%mzn-stat: nSolutions=7
% %%%mzn-stat-end
% Finished in 5m 0s.

% chuffed
% [| 17 | 17 | 17 | 12 | 14 | 8 | 15 | 17 | 12 | 17 |]